root_relax = 199.41
QCR_time = 3.5339
opt = true
obj_val = 199.01
solved_time = 0.076
explored_nodes = 303
nb_dom_cuts = 444
Gurobi/QCR_QP_Dom/bcc1615.txt"
Set parameter Presolve to value 0
Set parameter AggFill to value -1
Set parameter Aggregate to value 0
Set parameter Heuristics to value 0
Set parameter LPWarmStart to value 0
Set parameter NLPHeur to value 0
Set parameter NoRelHeurTime to value 0
Set parameter PreCrush to value 0
Set parameter PreDepRow to value 0
Set parameter PreDual to value 0
Set parameter PrePasses to value -1
Set parameter RINS to value 0
Set parameter Symmetry to value 0
Set parameter PreQLinearize to value 0
Set parameter NonConvex to value 0

Gurobi 12.0.0 (linux64) logging started Sun Jan 12 04:57:25 2025

Set parameter LogFile to value "./res/Gurobi/QCR_QP_Dom/bcc1615.txt"
Set parameter PreCrush to value 0
Set parameter PrePasses to value -1
Set parameter AggFill to value -1
Set parameter NoRelHeurTime to value 0
Set parameter NLPHeur to value 0
Set parameter NonConvex to value 0
Set parameter LPWarmStart to value 0
Set parameter PreDepRow to value 0
Set parameter Symmetry to value 0
Set parameter Presolve to value 0
Gurobi Optimizer version 12.0.0 build v12.0.0rc1 (linux64 - "Debian GNU/Linux 12 (bookworm)")

CPU model: Intel(R) Xeon(R) Silver 4210R CPU @ 2.40GHz, instruction set [SSE2|AVX|AVX2|AVX512]
Thread count: 1 physical cores, 2 logical processors, using up to 2 threads

Non-default parameters:
TimeLimit  1800
LPWarmStart  0
Heuristics  0
RINS  0
NLPHeur  0
Symmetry  0
Aggregate  0
PreDual  0
NonConvex  0
PreDepRow  0
PreQLinearize  0
Presolve  0

Optimize a model with 444 rows, 41 columns and 5068 nonzeros
Model fingerprint: 0xacc763c1
Model has 393 quadratic objective terms
Variable types: 0 continuous, 41 integer (41 binary)
Coefficient statistics:
  Matrix range     [1e+00, 1e+00]
  Objective range  [5e+00, 3e+01]
  QObjective range [2e+00, 1e+01]
  Bounds range     [0e+00, 0e+00]
  RHS range        [1e+00, 1e+01]
Variable types: 0 continuous, 41 integer (41 binary)

Root relaxation: objective -1.994080e+02, 94 iterations, 0.00 seconds (0.00 work units)

    Nodes    |    Current Node    |     Objective Bounds      |     Work
 Expl Unexpl |  Obj  Depth IntInf | Incumbent    BestBd   Gap | It/Node Time

     0     0 -199.40802    0   41          - -199.40802      -     -    0s
     0     0 -199.40795    0   41          - -199.40795      -     -    0s
     0     2 -199.40795    0   41          - -199.40795      -     -    0s
*   34    27              31    -199.0000000 -199.40504  0.20%   4.6    0s

Explored 303 nodes (1323 simplex iterations) in 0.08 seconds (0.07 work units)
Thread count was 2 (of 2 available processors)

Solution count 1: -199 

Optimal solution found (tolerance 1.00e-04)
Best objective -1.990000000000e+02, best bound -1.990050957592e+02, gap 0.0026%

User-callback calls 684, time in user-callback 0.00 sec
